certificates/rado_a11_c23_N20.cnf
c Rad2 upper bound instance: x1 + 11*x2 - x3 = 23, interval [1,20]
p cnf 20 74
1 3 11 0
-1 -3 -11 0
1 2 0
-1 -2 0
2 3 12 0
-2 -3 -12 0
2 3 0
-2 -3 0
3 13 0
-3 -13 0
2 3 4 0
-2 -3 -4 0
3 4 14 0
-3 -4 -14 0
2 4 5 0
-2 -4 -5 0
3 5 15 0
-3 -5 -15 0
2 5 6 0
-2 -5 -6 0
3 6 16 0
-3 -6 -16 0
2 6 7 0
-2 -6 -7 0
3 7 17 0
-3 -7 -17 0
2 7 8 0
-2 -7 -8 0
3 8 18 0
-3 -8 -18 0
2 8 9 0
-2 -8 -9 0
3 9 19 0
-3 -9 -19 0
2 9 10 0
-2 -9 -10 0
3 10 20 0
-3 -10 -20 0
2 10 11 0
-2 -10 -11 0
2 11 12 0
-2 -11 -12 0
1 13 0
-1 -13 0
2 12 13 0
-2 -12 -13 0
1 2 14 0
-1 -2 -14 0
2 13 14 0
-2 -13 -14 0
1 3 15 0
-1 -3 -15 0
2 14 15 0
-2 -14 -15 0
1 4 16 0
-1 -4 -16 0
2 15 16 0
-2 -15 -16 0
1 5 17 0
-1 -5 -17 0
2 16 17 0
-2 -16 -17 0
1 6 18 0
-1 -6 -18 0
2 17 18 0
-2 -17 -18 0
1 7 19 0
-1 -7 -19 0
2 18 19 0
-2 -18 -19 0
1 8 20 0
-1 -8 -20 0
2 19 20 0
-2 -19 -20 0
