certificates/rado_a11_c23_N20.drat
2 -20 0
-20 0
19 0
2 -11 0
-11 0
10 0
-3 0
1 0
2 0
13 0
0
